1
1000
120
492 1
490 1
485 1
484 1
475 1
472 1
467 1
461 1
454 1
447 1
446 1
443 1
442 1
442 1
437 1
434 1
432 1
431 1
428 1
427 1
422 1
419 1
414 1
412 1
404 1
404 1
403 1
397 1
393 1
387 1
383 1
381 1
381 1
377 1
377 1
376 1
370 1
369 1
369 1
368 1
367 1
365 1
364 1
361 1
359 1
358 1
355 1
352 1
349 1
337 1
337 1
330 1
329 1
329 1
324 1
323 1
321 1
319 1
317 1
316 1
310 1
303 1
299 1
298 1
298 1
294 1
294 1
293 1
293 1
290 1
290 1
287 1
285 1
285 1
285 1
284 1
284 1
282 1
281 1
279 1
279 1
278 1
275 1
274 1
273 1
273 1
272 1
272 1
270 1
267 1
267 1
265 1
265 1
265 1
264 1
264 1
264 1
262 1
262 1
262 1
261 1
260 1
260 1
260 1
259 1
259 1
257 1
257 1
256 1
255 1
255 1
254 1
254 1
253 1
252 1
252 1
251 1
251 1
250 1
250 1
